Vertices: 25
Edges: 107
Edge Density: 0.3566666666666667
Degree Variance: 5.406399999999998
Clustering Coefficient: 0.04173913043478261
p edge 25
e 0 1
e 0 7
e 0 10
e 0 13
e 0 14
e 0 16
e 0 17
e 0 18
e 0 20
e 0 21
e 0 22
e 1 2
e 1 3
e 1 6
e 1 9
e 1 12
e 1 14
e 1 18
e 1 21
e 1 22
e 2 4
e 2 7
e 2 11
e 2 13
e 2 14
e 2 15
e 2 18
e 2 19
e 2 22
e 2 23
e 2 24
e 3 7
e 3 15
e 3 17
e 3 20
e 4 5
e 4 6
e 4 7
e 4 13
e 4 20
e 4 22
e 5 9
e 5 14
e 5 17
e 5 21
e 5 24
e 6 7
e 6 9
e 6 10
e 6 11
e 6 16
e 6 18
e 7 9
e 7 10
e 7 11
e 7 12
e 7 13
e 8 9
e 8 11
e 8 13
e 8 15
e 8 18
e 8 21
e 8 24
e 9 15
e 9 19
e 9 21
e 10 12
e 10 13
e 10 14
e 10 15
e 10 19
e 11 16
e 11 19
e 11 20
e 11 23
e 12 14
e 12 21
e 12 22
e 12 24
e 13 15
e 13 17
e 13 18
e 13 20
e 13 21
e 13 22
e 13 24
e 14 15
e 14 18
e 14 20
e 15 16
e 16 20
e 16 21
e 16 23
e 17 18
e 17 19
e 17 20
e 17 21
e 17 23
e 17 24
e 18 21
e 18 22
e 19 20
e 19 22
e 20 22
e 21 24
e 22 24
